src/Chronos/4.1/est/matmult.lp
Maximize

97 dSta_0 + 3 d0_3 + 6 d0_3 + 0 d0_3.0 + 30 d0_3.0 + 18 d0_3 + 0 d0_3.0 + 60 d0_3.0 + 13 d1_4 + 0 d1_4 + 0 d1_4.0 + 0 d1_4.0 + 42 d1_4 + 0 d1_4.0 + 120 d1_4.0 + 7 d3_1 + 6 d3_1 + 0 d3_1.0 + 30 d3_1.0 + 12 d3_1 + 0 d3_1.0 + 60 d3_1.0 + 12 d4_8 + 12 d4_8 + 0 d4_8.0 + 60 d4_8.0 + 54 d4_8 + 0 d4_8.0 + 150 d4_8.0 + 12 d5_15 + 0 d5_15 + 0 d5_15.0 + 0 d5_15.0 + 12 d5_15 + 0 d5_15.0 + 30 d5_15.0 + 1 d6_22 + 0 d6_22 + 0 d6_22.0 + 0 d6_22.0 + 24 d6_22 + 0 d6_22.0 + 60 d6_22.0 + 4 d7_2 + 12 d7_2 + 0 d7_2.0 + 60 d7_2.0 + 36 d7_2 + 0 d7_2.0 + 90 d7_2.0 + 3 d8_9 + 0 d8_9 + 18 d8_9.0 + 0 d8_9.0 + 168 d8_9 + 0 d8_9.0 + 0 d8_9.0 + 1 d9_10 + 0 d9_10 + 0 d9_10.0 + 0 d9_10.0 + 42 d9_10 + 0 d9_10.0 + 0 d9_10.0 + 30 d10_14 + 0 d10_14 + 0 d10_14.0 + 0 d10_14.0 + 36 d10_14 + 0 d10_14.0 + 0 d10_14.0 + 4 d11_12 + 36 d11_12 + 0 d11_12.0 + 0 d11_12.0 + 90 d11_12 + 0 d11_12.0 + 30 d11_12.0 + 1 d11_10 + 36 d11_10 + 0 d11_10.0 + 0 d11_10.0 + 90 d11_10 + 0 d11_10.0 + 30 d11_10.0 + 12 d12_13 + 0 d12_13 + 0 d12_13.0 + 0 d12_13.0 + 84 d12_13 + 0 d12_13.0 + 0 d12_13.0 + 2 d12_9 + 0 d12_9 + 0 d12_9.0 + 0 d12_9.0 + 84 d12_9 + 0 d12_9.0 + 0 d12_9.0 + 2 d13_5 + 48 d13_5 + 0 d13_5.0 + 60 d13_5.0 + 72 d13_5 + 0 d13_5.0 + 90 d13_5.0 + 6 d14_11 + 36 d14_11 + 0 d14_11.0 + 0 d14_11.0 + 504 d14_11 + 36 d14_11.0 + 90 d14_11.0 + 3 d15_16 + 0 d15_16 + 18 d15_16.0 + 0 d15_16.0 + 168 d15_16 + 0 d15_16.0 + 0 d15_16.0 + 1 d16_17 + 0 d16_17 + 0 d16_17.0 + 0 d16_17.0 + 42 d16_17 + 0 d16_17.0 + 0 d16_17.0 + 30 d17_21 + 0 d17_21 + 0 d17_21.0 + 0 d17_21.0 + 36 d17_21 + 0 d17_21.0 + 0 d17_21.0 + 4 d18_19 + 36 d18_19 + 0 d18_19.0 + 0 d18_19.0 + 90 d18_19 + 0 d18_19.0 + 30 d18_19.0 + 1 d18_17 + 36 d18_17 + 0 d18_17.0 + 0 d18_17.0 + 90 d18_17 + 0 d18_17.0 + 30 d18_17.0 + 12 d19_20 + 0 d19_20 + 0 d19_20.0 + 0 d19_20.0 + 84 d19_20 + 0 d19_20.0 + 0 d19_20.0 + 2 d19_16 + 0 d19_16 + 0 d19_16.0 + 0 d19_16.0 + 84 d19_16 + 0 d19_16.0 + 0 d19_16.0 + 4 d20_6 + 48 d20_6 + 0 d20_6.0 + 60 d20_6.0 + 72 d20_6 + 0 d20_6.0 + 90 d20_6.0 + 6 d21_18 + 36 d21_18 + 0 d21_18.0 + 0 d21_18.0 + 504 d21_18 + 36 d21_18.0 + 90 d21_18.0 + 3 d22_23 + 0 d22_23 + 0 d22_23.0 + 0 d22_23.0 + 6 d22_23 + 0 d22_23.0 + 30 d22_23.0 + 7 d23_24 + 0 d23_24 + 0 d23_24.0 + 0 d23_24.0 + 48 d23_24 + 0 d23_24.0 + 30 d23_24.0 + 19 d24_25 + 36 d24_25 + 0 d24_25.0 + 0 d24_25.0 + 126 d24_25 + 0 d24_25.0 + 0 d24_25.0 + 5 d25_26 + 144 d25_26 + 0 d25_26.0 + 0 d25_26.0 + 60 d25_26 + 78 d25_26.0 + 330 d25_26.0 + 19 d25_25 + 144 d25_25 + 0 d25_25.0 + 0 d25_25.0 + 60 d25_25 + 78 d25_25.0 + 330 d25_25.0 + 5 d26_27 + 0 d26_27 + 0 d26_27.0 + 0 d26_27.0 + 30 d26_27 + 0 d26_27.0 + 90 d26_27.0 + 7 d26_24 + 0 d26_24 + 0 d26_24.0 + 0 d26_24.0 + 30 d26_24 + 0 d26_24.0 + 90 d26_24.0 + 1 d27_28 + 0 d27_28 + 0 d27_28.0 + 0 d27_28.0 + 30 d27_28 + 0 d27_28.0 + 90 d27_28.0 + 3 d27_23 + 0 d27_23 + 0 d27_23.0 + 0 d27_23.0 + 30 d27_23 + 0 d27_23.0 + 90 d27_23.0 + 10 d28_7 + 0 d28_7 + 0 d28_7.0 + 0 d28_7.0 + 6 d28_7 + 0 d28_7.0 + 30 d28_7.0


Subject to


\ === tcfg constraints ===
dSta_0 = 1
b0 - d0_3 = 0
b0 - dSta_0 = 0
b1 - d1_4 = 0
b1 - d3_1 = 0
b2 - d7_2 = 0
b3 - d3_1 = 0
b3 - d0_3 = 0
b4 - d4_8 = 0
b4 - d1_4 = 0
b5 - d5_15 = 0
b5 - d13_5 = 0
b6 - d6_22 = 0
b6 - d20_6 = 0
b7 - d7_2 = 0
b7 - d28_7 = 0
b8 - d8_9 = 0
b8 - d4_8 = 0
b9 - d9_10 = 0
b9 - d8_9 - d12_9 = 0
b10 - d10_14 = 0
b10 - d9_10 - d11_10 = 0
b11 - d11_12 - d11_10 = 0
b11 - d14_11 = 0
b12 - d12_13 - d12_9 = 0
b12 - d11_12 = 0
b13 - d13_5 = 0
b13 - d12_13 = 0
b14 - d14_11 = 0
b14 - d10_14 = 0
b15 - d15_16 = 0
b15 - d5_15 = 0
b16 - d16_17 = 0
b16 - d15_16 - d19_16 = 0
b17 - d17_21 = 0
b17 - d16_17 - d18_17 = 0
b18 - d18_19 - d18_17 = 0
b18 - d21_18 = 0
b19 - d19_20 - d19_16 = 0
b19 - d18_19 = 0
b20 - d20_6 = 0
b20 - d19_20 = 0
b21 - d21_18 = 0
b21 - d17_21 = 0
b22 - d22_23 = 0
b22 - d6_22 = 0
b23 - d23_24 = 0
b23 - d22_23 - d27_23 = 0
b24 - d24_25 = 0
b24 - d23_24 - d26_24 = 0
b25 - d25_26 - d25_25 = 0
b25 - d24_25 - d25_25 = 0
b26 - d26_27 - d26_24 = 0
b26 - d25_26 = 0
b27 - d27_28 - d27_23 = 0
b27 - d26_27 = 0
b28 - d28_7 = 0
b28 - d27_28 = 0


\ === tcfg_estunit_cons_ps ===
d0_3 - d0_3.0 >= 0
d0_3.0 <= 1
d1_4 - d1_4.0 >= 0
d1_4.0 <= 1
d3_1 - d3_1.0 >= 0
d3_1.0 <= 1
d4_8 - d4_8.0 >= 0
d4_8.0 <= 1
d5_15 - d5_15.0 >= 0
d5_15.0 <= 1
d6_22 - d6_22.0 >= 0
d6_22.0 <= 1
d7_2 - d7_2.0 >= 0
d7_2.0 <= 1
d8_9 - d8_9.0 >= 0
d8_9.0 <= 1
d9_10 - d9_10.0 >= 0
d9_10.0 <= 1
d10_14 - d10_14.0 >= 0
d10_14.0 <= 1
d11_12 - d11_12.0 >= 0
d11_12.0 <= 1
d11_10 - d11_10.0 >= 0
d11_10.0 <= 1
d12_13 - d12_13.0 >= 0
d12_13.0 <= 1
d12_9 - d12_9.0 >= 0
d12_9.0 <= 1
d13_5 - d13_5.0 >= 0
d13_5.0 <= 1
d14_11 - d14_11.0 >= 0
d14_11.0 <= 1
d15_16 - d15_16.0 >= 0
d15_16.0 <= 1
d16_17 - d16_17.0 >= 0
d16_17.0 <= 1
d17_21 - d17_21.0 >= 0
d17_21.0 <= 1
d18_19 - d18_19.0 >= 0
d18_19.0 <= 1
d18_17 - d18_17.0 >= 0
d18_17.0 <= 1
d19_20 - d19_20.0 >= 0
d19_20.0 <= 1
d19_16 - d19_16.0 >= 0
d19_16.0 <= 1
d20_6 - d20_6.0 >= 0
d20_6.0 <= 1
d21_18 - d21_18.0 >= 0
d21_18.0 <= 1
d22_23 - d22_23.0 >= 0
d22_23.0 <= 1
d23_24 - d23_24.0 >= 0
d23_24.0 <= 1
d24_25 - d24_25.0 >= 0
d24_25.0 <= 1
d25_26 - d25_26.0 >= 0
d25_26.0 <= 1
d25_25 - d25_25.0 >= 0
d25_25.0 <= 1
d26_27 - d26_27.0 >= 0
d26_27.0 <= 1
d26_24 - d26_24.0 >= 0
d26_24.0 <= 1
d27_28 - d27_28.0 >= 0
d27_28.0 <= 1
d27_23 - d27_23.0 >= 0
d27_23.0 <= 1
d28_7 - d28_7.0 >= 0
d28_7.0 <= 1

\ === infeasible path constraints ===

b0 = 1
b1 = 1
b2 = 1
b3 = 1
b4 = 1
b5 = 1
b6 = 1
b7 = 1
b15+ b8 = 2
b16+ b9 = 40
b17+ b10 = 800
b18+ b11 = 800
b19+ b12 = 40
b20+ b13 = 2
b21+ b14 = 800
b22 = 1
b23 = 20
b24 = 400
b25 = 8000
b26 = 400
b27 = 20
b28 = 1

Generals

Sta
b0
d0_3
b1
d1_4
b2
b3
d3_1
b4
d4_8
b5
d5_15
b6
d6_22
b7
d7_2
b8
d8_9
b9
d9_10
b10
d10_14
b11
d11_12
d11_10
b12
d12_13
d12_9
b13
d13_5
b14
d14_11
b15
d15_16
b16
d16_17
b17
d17_21
b18
d18_19
d18_17
b19
d19_20
d19_16
b20
d20_6
b21
d21_18
b22
d22_23
b23
d23_24
b24
d24_25
b25
d25_26
d25_25
b26
d26_27
d26_24
b27
d27_28
d27_23
b28
d28_7

End
\ total_cons: 150 	total_vars: 65
