src/Chronos/4.1/benchmarks/matmult/matmult.out
sim-profile: SimpleScalar/PISA Tool Set version 3.0 of August, 2003.
Copyright (c) 1994-2003 by Todd M. Austin, Ph.D. and SimpleScalar, LLC.
All Rights Reserved. This version of SimpleScalar is licensed for academic
non-commercial use.  No portion of this work may be used by any commercial
entity, or for any commercial purpose, without the prior written permission
of SimpleScalar, LLC (info@simplescalar.com).

sim: command line: /home/sudiptac/sudiptac/Work/simplesim-3.0/sim-profile -pcstat sim_num_insn matmult 

sim: simulation started @ Mon Jul 12 13:22:00 2010, options follow:

sim-profile: This simulator implements a functional simulator with
profiling support.  Run with the `-h' flag to see profiling options
available.

# -config                     # load configuration from a file
# -dumpconfig                 # dump configuration to a file
# -h                    false # print help message    
# -v                    false # verbose operation     
# -d                    false # enable debug message  
# -i                    false # start in Dlite debugger
-seed                       1 # random number generator seed (0 for timer seed)
# -q                    false # initialize and terminate immediately
# -chkpt               <null> # restore EIO trace execution from <fname>
# -redir:sim           <null> # redirect simulator output to file (non-interactive only)
# -redir:prog          <null> # redirect simulated program output to file
-nice                       0 # simulator scheduling priority
-max:inst                   0 # maximum number of inst's to execute
-all                    false # enable all profile options
-iclass                 false # enable instruction class profiling
-iprof                  false # enable instruction profiling
-brprof                 false # enable branch instruction profiling
-amprof                 false # enable address mode profiling
-segprof                false # enable load/store address segment profiling
-tsymprof               false # enable text symbol profiling
-taddrprof              false # enable text address profiling
-dsymprof               false # enable data symbol profiling
-internal               false # include compiler-internal symbols during symbol profiling
# -pcstat        sim_num_insn # profile stat(s) against text addr's (mult uses ok)

sim: ** starting functional simulation **

sim: ** simulation statistics **
sim_num_insn                 139605 # total number of instructions executed
sim_num_refs                  38422 # total number of loads and stores executed
sim_elapsed_time                  1 # total simulation time in seconds
sim_inst_rate           139605.0000 # simulation speed (in insts/sec)

sim_num_insn_by_pc     # total number of instructions executed (by text address)
sim_num_insn_by_pc.count = 898
sim_num_insn_by_pc.total = 139604
sim_num_insn_by_pc.imin = 0x400140
sim_num_insn_by_pc.imax = 0x405980
sim_num_insn_by_pc.average = 155.4610
sim_num_insn_by_pc.std_dev = 964.0923
sim_num_insn_by_pc.overflows = 0
# pdf == prob dist fn, cdf == cumulative dist fn
#          index      count    pdf 
sim_num_insn_by_pc.start_dist
0x400140 1 0.00
0x400148 1 0.00
0x400150 1 0.00
0x400158 1 0.00
0x400160 1 0.00
0x400168 1 0.00
0x400170 1 0.00
0x400178 1 0.00
0x400180 1 0.00
0x400188 1 0.00
0x400190 1 0.00
0x400198 1 0.00
0x4001a0 1 0.00
0x4001a8 1 0.00
0x4001b0 1 0.00
0x4001b8 1 0.00
0x4001c0 1 0.00
0x4001c8 1 0.00
0x4001d0 1 0.00
0x4001d8 1 0.00
0x4001e0 1 0.00
0x4001f0 1 0.00
0x4001f8 1 0.00
0x400200 1 0.00
0x400208 1 0.00
0x400210 1 0.00
0x400218 1 0.00
0x400220 1 0.00
0x400228 1 0.00
0x400230 1 0.00
0x400238 1 0.00
0x400240 1 0.00
0x400248 1 0.00
0x400250 1 0.00
0x400258 1 0.00
0x400260 1 0.00
0x400268 1 0.00
0x400270 1 0.00
0x400278 1 0.00
0x400280 1 0.00
0x400288 1 0.00
0x400290 1 0.00
0x400298 1 0.00
0x4002a0 1 0.00
0x4002a8 1 0.00
0x4002b0 1 0.00
0x4002b8 1 0.00
0x4002c0 1 0.00
0x4002c8 1 0.00
0x4002d0 1 0.00
0x4002d8 1 0.00
0x4002e0 1 0.00
0x4002e8 1 0.00
0x4002f0 1 0.00
0x4002f8 1 0.00
0x400300 1 0.00
0x400308 1 0.00
0x400310 2 0.00
0x400318 2 0.00
0x400320 2 0.00
0x400328 2 0.00
0x400330 2 0.00
0x400338 2 0.00
0x400340 2 0.00
0x400348 2 0.00
0x400350 40 0.03
0x400358 40 0.03
0x400360 800 0.57
0x400368 800 0.57
0x400370 800 0.57
0x400378 800 0.57
0x400380 800 0.57
0x400388 800 0.57
0x400390 40 0.03
0x400398 40 0.03
0x4003a0 40 0.03
0x4003a8 40 0.03
0x4003b0 2 0.00
0x4003b8 2 0.00
0x4003c0 2 0.00
0x4003c8 2 0.00
0x4003d0 2 0.00
0x4003d8 2 0.00
0x4003e0 2 0.00
0x4003e8 800 0.57
0x4003f0 800 0.57
0x4003f8 800 0.57
0x400400 800 0.57
0x400408 800 0.57
0x400410 800 0.57
0x400418 800 0.57
0x400420 800 0.57
0x400428 800 0.57
0x400430 800 0.57
0x400438 800 0.57
0x400440 800 0.57
0x400448 800 0.57
0x400450 800 0.57
0x400458 800 0.57
0x400460 800 0.57
0x400468 800 0.57
0x400470 800 0.57
0x400478 800 0.57
0x400480 800 0.57
0x400488 800 0.57
0x400490 800 0.57
0x400498 800 0.57
0x4004a0 800 0.57
0x4004a8 800 0.57
0x4004b0 1 0.00
0x4004b8 20 0.01
0x4004c0 20 0.01
0x4004c8 20 0.01
0x4004d0 400 0.29
0x4004d8 400 0.29
0x4004e0 400 0.29
0x4004e8 400 0.29
0x4004f0 400 0.29
0x4004f8 400 0.29
0x400500 8000 5.73
0x400508 8000 5.73
0x400510 8000 5.73
0x400518 8000 5.73
0x400520 8000 5.73
0x400528 8000 5.73
0x400530 8000 5.73
0x400538 8000 5.73
0x400540 8000 5.73
0x400548 8000 5.73
0x400550 8000 5.73
0x400558 8000 5.73
0x400560 8000 5.73
0x400568 400 0.29
0x400570 400 0.29
0x400578 400 0.29
0x400580 400 0.29
0x400588 400 0.29
0x400590 20 0.01
0x400598 20 0.01
0x4005a0 20 0.01
0x4005a8 20 0.01
0x4005b0 20 0.01
0x4005b8 1 0.00
0x4005c0 1 0.00
0x4005c8 1 0.00
0x4005d0 1 0.00
0x4005d8 1 0.00
0x4005e0 1 0.00
0x4005e8 1 0.00
0x4005f0 1 0.00
0x4005f8 1 0.00
0x400600 1 0.00
0x400608 1 0.00
0x400610 1 0.00
0x400618 1 0.00
0x400620 1 0.00
0x400628 1 0.00
0x400630 1 0.00
0x400638 1 0.00
0x400640 1 0.00
0x400648 1 0.00
0x400650 1 0.00
0x400658 1 0.00
0x400660 1 0.00
0x400668 1 0.00
0x400670 1 0.00
0x400720 1 0.00
0x400728 1 0.00
0x400730 1 0.00
0x400738 1 0.00
0x400740 1 0.00
0x400790 1 0.00
0x400798 1 0.00
0x4007a0 1 0.00
0x4007a8 1 0.00
0x4007b0 1 0.00
0x4007b8 1 0.00
0x4007c0 1 0.00
0x4007c8 1 0.00
0x4007d0 1 0.00
0x4007d8 1 0.00
0x4007e0 1 0.00
0x4007e8 1 0.00
0x4007f8 1 0.00
0x400800 1 0.00
0x400808 1 0.00
0x400810 1 0.00
0x400818 1 0.00
0x400a30 1 0.00
0x400a38 1 0.00
0x400a40 1 0.00
0x400a48 1 0.00
0x400a50 1 0.00
0x400a58 1 0.00
0x400a60 1 0.00
0x400a80 1 0.00
0x400aa0 1 0.00
0x400aa8 1 0.00
0x400ab0 1 0.00
0x400ab8 1 0.00
0x400ac0 1 0.00
0x400ac8 1 0.00
0x400ae8 1 0.00
0x400af0 1 0.00
0x400af8 1 0.00
0x400b00 1 0.00
0x400b20 1 0.00
0x400b28 1 0.00
0x400b30 1 0.00
0x400b38 1 0.00
0x400b40 1 0.00
0x400b48 1 0.00
0x400b50 1 0.00
0x400b58 1 0.00
0x400b60 1 0.00
0x400b68 1 0.00
0x400b70 1 0.00
0x400b78 1 0.00
0x400b80 1 0.00
0x400b88 1 0.00
0x400b90 1 0.00
0x400b98 1 0.00
0x400ba0 1 0.00
0x400ba8 1 0.00
0x400bb0 1 0.00
0x400bb8 1 0.00
0x400bc0 1 0.00
0x400bc8 1 0.00
0x400bd0 1 0.00
0x400bd8 1 0.00
0x400be8 1 0.00
0x400bf0 1 0.00
0x400bf8 1 0.00
0x400c00 1 0.00
0x400c08 1 0.00
0x400c10 1 0.00
0x400c18 1 0.00
0x400c20 1 0.00
0x400c28 1 0.00
0x400c30 1 0.00
0x400c38 1 0.00
0x400c40 1 0.00
0x400c48 1 0.00
0x400c50 1 0.00
0x400c58 1 0.00
0x400c60 1 0.00
0x400c68 1 0.00
0x400c70 1 0.00
0x400c78 1 0.00
0x400c80 1 0.00
0x400c88 1 0.00
0x400c90 1 0.00
0x400c98 1 0.00
0x400ca0 1 0.00
0x400ca8 1 0.00
0x400cb8 1 0.00
0x400cc0 1 0.00
0x400cc8 1 0.00
0x400cd0 1 0.00
0x400cd8 1 0.00
0x400ce0 1 0.00
0x400ce8 1 0.00
0x400cf0 1 0.00
0x400cf8 1 0.00
0x400d00 1 0.00
0x400d08 1 0.00
0x400d10 1 0.00
0x400d18 1 0.00
0x400d20 1 0.00
0x400d28 1 0.00
0x400d30 1 0.00
0x400d38 1 0.00
0x400d68 1 0.00
0x400d70 1 0.00
0x400d80 1 0.00
0x400d88 1 0.00
0x400da0 1 0.00
0x400da8 1 0.00
0x400db0 1 0.00
0x400db8 1 0.00
0x400dc8 1 0.00
0x400dd0 1 0.00
0x400dd8 1 0.00
0x400de0 1 0.00
0x400de8 1 0.00
0x401070 1 0.00
0x401078 1 0.00
0x401080 1 0.00
0x401088 1 0.00
0x401098 1 0.00
0x4010a0 1 0.00
0x4010a8 1 0.00
0x4010b0 1 0.00
0x4010b8 1 0.00
0x4010c0 1 0.00
0x4010c8 1 0.00
0x4010d0 1 0.00
0x4010d8 1 0.00
0x4010e0 1 0.00
0x4010e8 1 0.00
0x4010f0 1 0.00
0x4010f8 1 0.00
0x401100 1 0.00
0x401108 1 0.00
0x401110 1 0.00
0x401118 1 0.00
0x401120 1 0.00
0x401128 1 0.00
0x401130 1 0.00
0x401138 1 0.00
0x401140 1 0.00
0x401158 1 0.00
0x401160 1 0.00
0x401168 1 0.00
0x401170 1 0.00
0x401178 1 0.00
0x401180 1 0.00
0x401190 1 0.00
0x401198 1 0.00
0x401530 1 0.00
0x401538 1 0.00
0x401540 1 0.00
0x401548 1 0.00
0x401550 1 0.00
0x401558 1 0.00
0x401560 1 0.00
0x401568 1 0.00
0x401570 1 0.00
0x401578 1 0.00
0x401580 1 0.00
0x401588 1 0.00
0x401590 1 0.00
0x401598 1 0.00
0x4015a0 1 0.00
0x4015a8 1 0.00
0x4015b0 1 0.00
0x4015b8 1 0.00
0x4015c0 1 0.00
0x4015c8 1 0.00
0x4015d0 1 0.00
0x4015d8 1 0.00
0x4015e0 1 0.00
0x4015e8 1 0.00
0x4015f0 1 0.00
0x4015f8 1 0.00
0x4016e0 1 0.00
0x4016e8 1 0.00
0x4016f0 1 0.00
0x4016f8 1 0.00
0x401700 1 0.00
0x401708 1 0.00
0x401710 1 0.00
0x401720 1 0.00
0x401728 1 0.00
0x401730 1 0.00
0x401738 1 0.00
0x401740 1 0.00
0x401748 1 0.00
0x401750 1 0.00
0x401758 1 0.00
0x401760 1 0.00
0x401768 1 0.00
0x401770 1 0.00
0x401778 1 0.00
0x401780 1 0.00
0x401788 1 0.00
0x401790 1 0.00
0x401798 1 0.00
0x4017a0 1 0.00
0x401a38 1 0.00
0x401a40 1 0.00
0x401a48 1 0.00
0x401a50 1 0.00
0x401a58 1 0.00
0x401a60 1 0.00
0x401a68 1 0.00
0x401a70 1 0.00
0x401a80 4 0.00
0x401a88 4 0.00
0x401a90 4 0.00
0x401a98 4 0.00
0x401aa0 4 0.00
0x401aa8 4 0.00
0x401ab0 4 0.00
0x401ab8 1 0.00
0x401ac0 1 0.00
0x401ac8 1 0.00
0x401ad0 1 0.00
0x401ad8 1 0.00
0x401ae0 1 0.00
0x401ae8 3 0.00
0x401af0 3 0.00
0x401b08 3 0.00
0x401b10 3 0.00
0x401b18 3 0.00
0x401b20 3 0.00
0x401b28 3 0.00
0x401b30 3 0.00
0x401b38 1 0.00
0x401b40 1 0.00
0x401b48 3 0.00
0x401b50 3 0.00
0x401b58 3 0.00
0x401b60 3 0.00
0x401b78 3 0.00
0x401b80 3 0.00
0x401b88 3 0.00
0x401b90 3 0.00
0x401bb8 3 0.00
0x401bc0 3 0.00
0x401bc8 3 0.00
0x401bd0 2 0.00
0x401bd8 2 0.00
0x401be0 2 0.00
0x401be8 2 0.00
0x401bf0 2 0.00
0x401c08 3 0.00
0x401c10 3 0.00
0x401c18 1 0.00
0x401c20 1 0.00
0x401c28 1 0.00
0x401c30 1 0.00
0x401c38 3 0.00
0x401c40 3 0.00
0x401c48 2 0.00
0x401c50 2 0.00
0x401c58 2 0.00
0x401c60 2 0.00
0x401c68 1 0.00
0x401c70 1 0.00
0x401c78 1 0.00
0x401c80 1 0.00
0x401c88 1 0.00
0x401ca8 1 0.00
0x401cb0 3 0.00
0x401cb8 3 0.00
0x401cc0 3 0.00
0x401cc8 4 0.00
0x401cd0 4 0.00
0x401cd8 4 0.00
0x401ce0 4 0.00
0x401ce8 4 0.00
0x401cf0 4 0.00
0x401d20 1 0.00
0x401d28 1 0.00
0x401d30 1 0.00
0x401d38 1 0.00
0x401d70 1 0.00
0x401d78 1 0.00
0x401d80 1 0.00
0x401d88 1 0.00
0x401d90 1 0.00
0x401d98 1 0.00
0x401da0 2 0.00
0x401da8 2 0.00
0x401db0 2 0.00
0x401db8 2 0.00
0x401dc0 2 0.00
0x401dc8 2 0.00
0x401dd0 2 0.00
0x401dd8 2 0.00
0x401de0 1 0.00
0x401de8 1 0.00
0x401df0 1 0.00
0x401df8 1 0.00
0x401e00 1 0.00
0x401e08 1 0.00
0x401e10 1 0.00
0x401e18 1 0.00
0x401e20 1 0.00
0x401e28 1 0.00
0x401e30 1 0.00
0x401e38 1 0.00
0x401e40 1 0.00
0x401e48 1 0.00
0x401e50 1 0.00
0x401e58 1 0.00
0x401e60 1 0.00
0x401e68 1 0.00
0x401e70 1 0.00
0x401e78 1 0.00
0x401e80 1 0.00
0x401e88 1 0.00
0x401e90 1 0.00
0x401ea8 1 0.00
0x401eb0 1 0.00
0x401eb8 1 0.00
0x401ec0 3 0.00
0x401ec8 3 0.00
0x401ed0 3 0.00
0x401ed8 3 0.00
0x401ee0 3 0.00
0x401ee8 3 0.00
0x401ef0 3 0.00
0x401ef8 3 0.00
0x401f00 3 0.00
0x401f08 3 0.00
0x401f10 4 0.00
0x401f18 4 0.00
0x401f20 4 0.00
0x401f28 4 0.00
0x401f30 4 0.00
0x401f38 4 0.00
0x401f40 4 0.00
0x401f48 4 0.00
0x401f50 4 0.00
0x401f58 4 0.00
0x401f88 4 0.00
0x401f90 4 0.00
0x401f98 4 0.00
0x401fa0 390 0.28
0x401fa8 390 0.28
0x401fb0 390 0.28
0x401fb8 390 0.28
0x401fc0 390 0.28
0x401fc8 390 0.28
0x401fd0 390 0.28
0x401fd8 390 0.28
0x401fe0 390 0.28
0x401fe8 390 0.28
0x401ff0 390 0.28
0x401ff8 390 0.28
0x402000 4 0.00
0x402008 4 0.00
0x402010 4 0.00
0x402018 12 0.01
0x402020 12 0.01
0x402028 12 0.01
0x402030 12 0.01
0x402038 4 0.00
0x402040 4 0.00
0x402068 4 0.00
0x402070 4 0.00
0x402240 1 0.00
0x402248 1 0.00
0x402250 1 0.00
0x402258 1 0.00
0x402260 1 0.00
0x402268 1 0.00
0x402270 1 0.00
0x402278 1 0.00
0x402280 1 0.00
0x402288 1 0.00
0x402298 1 0.00
0x4022a0 1 0.00
0x4022a8 1 0.00
0x4022b0 1 0.00
0x4022b8 1 0.00
0x4022c0 1 0.00
0x4022c8 1 0.00
0x4022d0 1 0.00
0x4022d8 1 0.00
0x4022e0 1 0.00
0x4022e8 1 0.00
0x4022f0 1 0.00
0x4022f8 1 0.00
0x402300 1 0.00
0x402308 1 0.00
0x402310 1 0.00
0x402318 1 0.00
0x402320 1 0.00
0x402328 1 0.00
0x402330 1 0.00
0x402338 1 0.00
0x402340 1 0.00
0x402348 1 0.00
0x402350 1 0.00
0x402358 1 0.00
0x4023a8 1 0.00
0x4023b0 1 0.00
0x4023b8 1 0.00
0x4023c0 1 0.00
0x4023c8 1 0.00
0x4023d0 1 0.00
0x4023d8 1 0.00
0x4023f0 1 0.00
0x4023f8 1 0.00
0x402400 1 0.00
0x402408 1 0.00
0x402410 1 0.00
0x402418 1 0.00
0x402420 1 0.00
0x402428 1 0.00
0x402430 1 0.00
0x402438 1 0.00
0x402440 1 0.00
0x402448 1 0.00
0x402450 1 0.00
0x4024a0 1 0.00
0x4024a8 1 0.00
0x4024b0 1 0.00
0x4024b8 1 0.00
0x4024c0 1 0.00
0x4024c8 1 0.00
0x4024d0 1 0.00
0x4024d8 1 0.00
0x4024e0 1 0.00
0x4024e8 1 0.00
0x4024f0 1 0.00
0x4024f8 1 0.00
0x402500 1 0.00
0x402508 1 0.00
0x402510 1 0.00
0x402518 1 0.00
0x402520 1 0.00
0x402528 1 0.00
0x402530 1 0.00
0x402538 1 0.00
0x402540 1 0.00
0x402548 1 0.00
0x402550 1 0.00
0x402558 1 0.00
0x402560 1 0.00
0x402568 1 0.00
0x402570 1 0.00
0x402578 1 0.00
0x402630 1 0.00
0x402638 1 0.00
0x402640 1 0.00
0x402648 1 0.00
0x402650 1 0.00
0x4027a0 1 0.00
0x4027a8 1 0.00
0x402ab8 1 0.00
0x402ac0 1 0.00
0x402ac8 1 0.00
0x402ad0 1 0.00
0x402ad8 1 0.00
0x402ae0 1 0.00
0x402ae8 1 0.00
0x402af0 1 0.00
0x402af8 1 0.00
0x402b00 1 0.00
0x402b08 1 0.00
0x402b10 1 0.00
0x402b38 1 0.00
0x402b40 1 0.00
0x402b70 1 0.00
0x402b78 1 0.00
0x402b80 1 0.00
0x402b88 1 0.00
0x402fb8 2 0.00
0x402fc0 2 0.00
0x402fc8 2 0.00
0x402fd0 2 0.00
0x402fd8 2 0.00
0x402fe0 2 0.00
0x402fe8 2 0.00
0x402ff0 2 0.00
0x402ff8 2 0.00
0x403000 2 0.00
0x403008 2 0.00
0x403010 2 0.00
0x403018 2 0.00
0x403020 2 0.00
0x403028 2 0.00
0x403030 2 0.00
0x403038 2 0.00
0x403040 2 0.00
0x403048 2 0.00
0x403050 2 0.00
0x403058 2 0.00
0x403060 2 0.00
0x403068 2 0.00
0x403070 2 0.00
0x403078 2 0.00
0x403080 2 0.00
0x403088 2 0.00
0x403090 2 0.00
0x403248 2 0.00
0x403250 2 0.00
0x403258 1 0.00
0x403260 1 0.00
0x403268 1 0.00
0x403270 1 0.00
0x403278 1 0.00
0x403280 1 0.00
0x403288 1 0.00
0x4032f0 2 0.00
0x4032f8 2 0.00
0x403300 2 0.00
0x403308 2 0.00
0x403340 2 0.00
0x403348 2 0.00
0x403350 2 0.00
0x403358 2 0.00
0x403360 2 0.00
0x403368 2 0.00
0x403370 2 0.00
0x403378 2 0.00
0x403380 2 0.00
0x403388 2 0.00
0x403390 2 0.00
0x403690 2 0.00
0x403698 2 0.00
0x4036a0 2 0.00
0x4036a8 2 0.00
0x4036b0 2 0.00
0x4036b8 2 0.00
0x4036c0 2 0.00
0x4036c8 2 0.00
0x4036d0 2 0.00
0x4036e8 2 0.00
0x4036f0 2 0.00
0x4036f8 2 0.00
0x403700 2 0.00
0x403708 2 0.00
0x403710 2 0.00
0x403718 2 0.00
0x403720 2 0.00
0x403728 2 0.00
0x403730 2 0.00
0x403738 2 0.00
0x403bd0 2 0.00
0x403bd8 2 0.00
0x403be0 2 0.00
0x403be8 2 0.00
0x403bf0 2 0.00
0x403bf8 2 0.00
0x403c00 2 0.00
0x403c08 2 0.00
0x403c10 2 0.00
0x403c18 2 0.00
0x403c20 2 0.00
0x403c28 2 0.00
0x403c30 2 0.00
0x403c38 2 0.00
0x403c40 2 0.00
0x403c58 2 0.00
0x403c60 2 0.00
0x403c68 2 0.00
0x403c70 2 0.00
0x403c78 2 0.00
0x403c80 2 0.00
0x403c88 2 0.00
0x403cb0 2 0.00
0x403cb8 2 0.00
0x403cc0 2 0.00
0x403cc8 2 0.00
0x403cd0 2 0.00
0x403d08 2 0.00
0x403d10 2 0.00
0x403d18 2 0.00
0x403d20 2 0.00
0x403d28 2 0.00
0x403d30 2 0.00
0x403d38 2 0.00
0x403d40 2 0.00
0x403d48 2 0.00
0x403d50 2 0.00
0x403d58 2 0.00
0x403d60 2 0.00
0x403d68 2 0.00
0x403d70 2 0.00
0x403d78 2 0.00
0x403d80 2 0.00
0x403d88 2 0.00
0x403d90 2 0.00
0x403d98 2 0.00
0x403da0 2 0.00
0x403da8 2 0.00
0x403db0 2 0.00
0x403db8 2 0.00
0x403dc0 2 0.00
0x403dc8 2 0.00
0x403dd0 2 0.00
0x403dd8 2 0.00
0x403de0 2 0.00
0x403de8 2 0.00
0x403df0 2 0.00
0x403df8 1 0.00
0x403e00 1 0.00
0x403e18 1 0.00
0x403e20 1 0.00
0x403e28 1 0.00
0x403e30 1 0.00
0x403e38 1 0.00
0x403e40 1 0.00
0x403e48 1 0.00
0x403e80 1 0.00
0x403e88 1 0.00
0x403e90 1 0.00
0x403eb8 2 0.00
0x403ec0 2 0.00
0x403ec8 2 0.00
0x403ed0 2 0.00
0x403ed8 2 0.00
0x403ee0 2 0.00
0x403ee8 2 0.00
0x403ef0 2 0.00
0x403ef8 2 0.00
0x403f28 2 0.00
0x403ff0 2 0.00
0x403ff8 2 0.00
0x404000 2 0.00
0x404028 2 0.00
0x404030 2 0.00
0x404040 2 0.00
0x404048 2 0.00
0x404050 2 0.00
0x404058 2 0.00
0x404060 2 0.00
0x404068 2 0.00
0x404098 2 0.00
0x4040a0 2 0.00
0x4040a8 2 0.00
0x4040b0 2 0.00
0x4040c8 2 0.00
0x4040d0 2 0.00
0x4040d8 2 0.00
0x4040e0 2 0.00
0x4040e8 2 0.00
0x4040f0 2 0.00
0x4040f8 2 0.00
0x404100 2 0.00
0x404698 3 0.00
0x4046a0 3 0.00
0x4046a8 3 0.00
0x4046b0 3 0.00
0x4046b8 3 0.00
0x4046c0 3 0.00
0x4046c8 3 0.00
0x4046d0 3 0.00
0x4046d8 3 0.00
0x4046e0 3 0.00
0x4046e8 3 0.00
0x4046f0 3 0.00
0x4046f8 3 0.00
0x404700 3 0.00
0x404708 3 0.00
0x4048b0 2 0.00
0x4048b8 2 0.00
0x4048c0 2 0.00
0x4048c8 2 0.00
0x4048d0 2 0.00
0x4048d8 2 0.00
0x404d50 3 0.00
0x404d58 3 0.00
0x404d60 3 0.00
0x404d68 3 0.00
0x404d80 3 0.00
0x404d88 3 0.00
0x404d90 3 0.00
0x404d98 3 0.00
0x404da0 3 0.00
0x404da8 3 0.00
0x404db0 3 0.00
0x404db8 3 0.00
0x404dc0 3 0.00
0x404dc8 3 0.00
0x404dd0 3 0.00
0x405630 2 0.00
0x405638 2 0.00
0x405640 2 0.00
0x405648 2 0.00
0x405650 2 0.00
0x405658 2 0.00
0x405660 2 0.00
0x405668 2 0.00
0x405670 2 0.00
0x405678 2 0.00
0x405680 2 0.00
0x405688 1 0.00
0x405690 1 0.00
0x405698 1 0.00
0x4056a0 1 0.00
0x4056a8 1 0.00
0x4056b0 1 0.00
0x4056b8 1 0.00
0x4056c0 1 0.00
0x4056e8 1 0.00
0x4056f0 1 0.00
0x405730 1 0.00
0x405738 1 0.00
0x405740 2 0.00
0x405748 2 0.00
0x405750 2 0.00
0x405758 2 0.00
0x405760 2 0.00
0x405840 2 0.00
0x405848 2 0.00
0x405850 2 0.00
0x405858 2 0.00
0x405860 2 0.00
0x4058f0 3 0.00
0x4058f8 3 0.00
0x405900 3 0.00
0x405910 3 0.00
0x405918 3 0.00
0x405920 3 0.00
0x405928 3 0.00
0x405930 3 0.00
0x405938 3 0.00
0x405960 1 0.00
0x405968 1 0.00
0x405970 1 0.00
0x405978 1 0.00
0x405980 1 0.00
sim_num_insn_by_pc.end_dist

ld_text_base             0x00400000 # program text (code) segment base
ld_text_size                  23232 # program text (code) size in bytes
ld_data_base             0x10000000 # program initialized data segment base
ld_data_size                   5856 # program init'ed `.data' and uninit'ed `.bss' size in bytes
ld_stack_base            0x7fffc000 # program stack segment base (highest address in stack)
ld_stack_size                 16384 # program initial stack size
ld_prog_entry            0x00400140 # program entry point (initial PC)
ld_environ_base          0x7fff8000 # program environment base address address
ld_target_big_endian              0 # target executable endian-ness, non-zero if big endian
mem.page_count                   13 # total number of pages allocated
mem.page_mem                    52k # total size of memory pages allocated
mem.ptab_misses                  13 # total first level page table misses
mem.ptab_accesses            781624 # total page table accesses
mem.ptab_miss_rate           0.0000 # first level page table miss rate

+--------------------------------------------------------------+
| effective code range:         [0, fffffff8]                  |
| effective bpred count:        0                              |
| effective sim cycles:         0                              |
| effective bpred misses:       0                              |
| effective icache misses:      0                              |
+--------------------------------------------------------------+

